waescher 
ins 1
 10000 96
4990
4990
4919
4919
4919
4640
4640
4300
4300
4300
4283
4283
4225
4225
4225
4108
4108
4108
4108
4097
4097
4071
4071
4071
4071
3971
3971
3898
3875
3875
3875
3875
3875
3853
3833
3747
3747
3701
3701
3660
3660
3388
3019
2927
2927
2832
2823
2823
2696
2408
2408
1585
1546
1546
1222
1222
1222
1194
1096
1096
1096
1049
958
876
865
835
835
676
676
636
613
613
613
583
583
583
527
527
515
515
515
506
484
484
484
484
484
478
425
294
186
186
186
186
186
64
